Route #1: 1 49 37 53 18 21 1
Route #2: 1 63 51 29 58 33 45 48 12 35 52 1
Route #3: 1 31 5 39 14 27 44 1
Route #4: 1 30 57 41 26 16 50 19 6 20 43 1
Route #5: 1 60 11 4 46 40 42 2 54 55 8 1
Route #6: 1 17 38 61 62 22 25 1
Route #7: 1 9 36 28 7 13 1
Route #8: 1 23 59 56 34 1
Route #9: 1 32 24 47 1
Route #10: 1 15 3 10 1
cost: 1510
